unknown
(model
; cardinality of BoundSet is 2
(declare-sort BoundSet 0)
; rep: @uc_BoundSet_0
; rep: @uc_BoundSet_1
; cardinality of UnboundSet is 1
(declare-sort UnboundSet 0)
(declare-fun groundTerm_3 () UnboundSet)
(define-fun IsSitting ((BOUND_VARIABLE_585 BoundSet)) Bool true)
(define-fun IsOnBench ((BOUND_VARIABLE_585 BoundSet)) Bool true)
(define-fun InFrontOfBuildings ((BOUND_VARIABLE_585 BoundSet)) Bool true)
(define-fun IsSeated ((BOUND_VARIABLE_585 BoundSet)) Bool true)
(define-fun IsOutside ((BOUND_VARIABLE_585 BoundSet)) Bool false)
)
sat
(model
; cardinality of BoundSet is 1
(declare-sort BoundSet 0)
; rep: @uc_BoundSet_0
; cardinality of UnboundSet is 1
(declare-sort UnboundSet 0)
(declare-fun groundTerm_11 () UnboundSet)
(define-fun IsSitting ((BOUND_VARIABLE_585 BoundSet)) Bool true)
(define-fun IsOnBench ((BOUND_VARIABLE_585 BoundSet)) Bool true)
(define-fun InFrontOfBuildings ((BOUND_VARIABLE_585 BoundSet)) Bool true)
(define-fun IsSeated ((BOUND_VARIABLE_585 BoundSet)) Bool true)
(define-fun IsOutside ((BOUND_VARIABLE_585 BoundSet)) Bool false)
)
